(declare-fun ExpandObjSwitcher () Real)
(declare-fun CreateAsClass () Bool)
(declare-fun ExpandObjSwitcher_2 () Real)
(declare-fun Constructed_Argument_t () String)
(declare-fun CreateAsClass_2 () Bool)
(declare-fun ExpandObjSwitcher_3 () Real)
(declare-fun Constructed_Argument_2_t () String)
(declare-fun CreateAsClass_3 () Bool)
(declare-fun ExpandObjSwitcher_4 () Real)
(declare-fun Constructed_Argument_3_t () String)
(declare-fun CreateAsClass_4 () Bool)
(declare-fun ExpandObjSwitcher_5 () Real)
(declare-fun Constructed_Argument_4_t () String)
(declare-fun CreateAsClass_5 () Bool)
(declare-fun ExpandObjSwitcher_6 () Real)
(declare-fun Constructed_Argument_5_t () String)
(declare-fun CreateAsClass_6 () Bool)
(declare-fun ExpandObjSwitcher_7 () Real)
(declare-fun Constructed_Argument_6_t () String)
(declare-fun CreateAsClass_7 () Bool)
(declare-fun ExpandObjSwitcher_8 () Real)
(declare-fun Constructed_Argument_7_t () String)
(declare-fun CreateAsClass_8 () Bool)
(declare-fun ExpandObjSwitcher_9 () Real)
(declare-fun Constructed_Argument_8_t () String)
(assert (= ExpandObjSwitcher 1.0))
(assert (not CreateAsClass))
(assert (= ExpandObjSwitcher_2 10.0))
(assert (not (= Constructed_Argument_t "string")))
(assert (not (= Constructed_Argument_t "number")))
(assert (not (= Constructed_Argument_t "boolean")))
(assert (not (= Constructed_Argument_t "object")))
(assert (not (= Constructed_Argument_t "array_number")))
(assert (not (= Constructed_Argument_t "array_string")))
(assert (not (= Constructed_Argument_t "array_bool")))
(assert (not (= Constructed_Argument_t "null")))
(assert (not CreateAsClass_2))
(assert (= ExpandObjSwitcher_3 10.0))
(assert (not (= Constructed_Argument_2_t "string")))
(assert (not (= Constructed_Argument_2_t "number")))
(assert (not (= Constructed_Argument_2_t "boolean")))
(assert (not (= Constructed_Argument_2_t "object")))
(assert (not (= Constructed_Argument_2_t "array_number")))
(assert (not (= Constructed_Argument_2_t "array_string")))
(assert (not (= Constructed_Argument_2_t "array_bool")))
(assert (not (= Constructed_Argument_2_t "null")))
(assert (not CreateAsClass_3))
(assert (= ExpandObjSwitcher_4 10.0))
(assert (not (= Constructed_Argument_3_t "string")))
(assert (not (= Constructed_Argument_3_t "number")))
(assert (not (= Constructed_Argument_3_t "boolean")))
(assert (not (= Constructed_Argument_3_t "object")))
(assert (not (= Constructed_Argument_3_t "array_number")))
(assert (not (= Constructed_Argument_3_t "array_string")))
(assert (not (= Constructed_Argument_3_t "array_bool")))
(assert (not (= Constructed_Argument_3_t "null")))
(assert (not CreateAsClass_4))
(assert (= ExpandObjSwitcher_5 10.0))
(assert (not (= Constructed_Argument_4_t "string")))
(assert (not (= Constructed_Argument_4_t "number")))
(assert (not (= Constructed_Argument_4_t "boolean")))
(assert (not (= Constructed_Argument_4_t "object")))
(assert (not (= Constructed_Argument_4_t "array_number")))
(assert (not (= Constructed_Argument_4_t "array_string")))
(assert (not (= Constructed_Argument_4_t "array_bool")))
(assert (not (= Constructed_Argument_4_t "null")))
(assert (not CreateAsClass_5))
(assert (= ExpandObjSwitcher_6 10.0))
(assert (not (= Constructed_Argument_5_t "string")))
(assert (not (= Constructed_Argument_5_t "number")))
(assert (not (= Constructed_Argument_5_t "boolean")))
(assert (not (= Constructed_Argument_5_t "object")))
(assert (not (= Constructed_Argument_5_t "array_number")))
(assert (not (= Constructed_Argument_5_t "array_string")))
(assert (not (= Constructed_Argument_5_t "array_bool")))
(assert (not (= Constructed_Argument_5_t "null")))
(assert (not CreateAsClass_6))
(assert (= ExpandObjSwitcher_7 10.0))
(assert (not (= Constructed_Argument_6_t "string")))
(assert (not (= Constructed_Argument_6_t "number")))
(assert (not (= Constructed_Argument_6_t "boolean")))
(assert (not (= Constructed_Argument_6_t "object")))
(assert (not (= Constructed_Argument_6_t "array_number")))
(assert (not (= Constructed_Argument_6_t "array_string")))
(assert (not (= Constructed_Argument_6_t "array_bool")))
(assert (not (= Constructed_Argument_6_t "null")))
(assert (not CreateAsClass_7))
(assert (= ExpandObjSwitcher_8 10.0))
(assert (not (= Constructed_Argument_7_t "string")))
(assert (not (= Constructed_Argument_7_t "number")))
(assert (not (= Constructed_Argument_7_t "boolean")))
(assert (not (= Constructed_Argument_7_t "object")))
(assert (not (= Constructed_Argument_7_t "array_number")))
(assert (not (= Constructed_Argument_7_t "array_string")))
(assert (not (= Constructed_Argument_7_t "array_bool")))
(assert (not (= Constructed_Argument_7_t "null")))
(assert (not CreateAsClass_8))
(assert (not (= ExpandObjSwitcher_9 0.0)))
(assert (not (= ExpandObjSwitcher_9 1.0)))
(assert (not (= ExpandObjSwitcher_9 2.0)))
(assert (= ExpandObjSwitcher_9 3.0))
(assert (not (= Constructed_Argument_8_t "string")))
(assert (not (= Constructed_Argument_8_t "number")))
(assert (not (= Constructed_Argument_8_t "boolean")))
(assert (not (= Constructed_Argument_8_t "object")))
(assert (not (= Constructed_Argument_8_t "array_number")))
(assert (= Constructed_Argument_8_t "array_string"))
(check-sat)
